3 3 2
20 0 60 2 63 0 88 1 18 2 82 0 95 2 19 1 80 2 16 1 25 0 16 1 52 0 85 1 2 2 79 0 13 2 43 0 59 1 60 0 74 
20 2 55 1 16 0 76 1 96 2 26 0 94 1 96 2 60 0 35 2 1 1 19 0 56 1 82 2 62 1 22 0 31 2 92 1 40 2 37 0 35 
20 1 30 2 8 1 93 2 57 0 84 2 18 1 66 2 1 0 24 1 81 0 28 2 1 1 39 2 18 0 7 2 68 0 62 2 90 0 58 2 20 

-------------
